c WARNING: for repeatability, setting FPU to use double precision
d VARIABLES            197920       
d CONSTRAINTS          900801       
c ============================[ Problem Statistics ]=============================
c |                                                                             |
c |  Number of variables:        197920                                         |
c |  Number of clauses:          900801                                         |
c |  Parse time:                   0.15 s                                       |
c |                                                                             |
c ============================[ Search Statistics ]==============================
c | Conflicts |          ORIGINAL         |          LEARNT          | Progress |
c |           |    Vars  Clauses Literals |    Limit  Clauses Lit/Cl |          |
c ===============================================================================
c |       100 |  173468   831317  2011258 |   304816       99     16 | 12.354 % |
c |       250 |  173468   831317  2011258 |   335297      249     43 | 12.354 % |
c |       475 |  173468   831317  2011258 |   368827      474     62 | 12.354 % |
c |       812 |  173468   830952  2010382 |   405710      810     62 | 12.354 % |
c |      1318 |  173468   830952  2010382 |   446281     1316     91 | 12.354 % |
c |      2077 |  173468   830952  2010382 |   490909     2075     87 | 12.354 % |
c |      3216 |  173468   830952  2010382 |   540000     3214    132 | 12.354 % |
c |      4924 |  173468   830952  2010382 |   594000     4922    117 | 12.354 % |
c |      7486 |  173468   830952  2010382 |   653400     7484    134 | 12.354 % |
c |     11330 |  173468   830952  2010382 |   718740    11328    131 | 12.354 % |
c |     17096 |  173468   830952  2010382 |   790614    17094    169 | 12.354 % |
c |     25745 |  173468   830952  2010382 |   869676    25743    195 | 12.354 % |
c |     38719 |  173468   830952  2010382 |   956643    38717    198 | 12.354 % |
c |     58180 |  173468   830952  2010382 |  1052308    58178    202 | 12.354 % |
c |     87372 |  173468   830952  2010382 |  1157539    87370    213 | 12.354 % |
c |    131161 |  173468   830952  2010382 |  1273293   131159    214 | 12.354 % |
c |    196845 |  173467   830940  2010353 |  1400622   196829    226 | 12.355 % |
c |    295371 |  173465   830916  2010295 |  1540684   295197    224 | 12.356 % |
c |    443160 |  173456   830856  2010150 |  1694753   442621    207 | 12.361 % |
c ===============================================================================
c restarts              : 1141
c conflicts             : 544519         (1207 /sec)
c decisions             : 2100829        (0.00 % random) (4658 /sec)
c propagations          : 1335363586     (2960552 /sec)
c conflict literals     : 108165964      (29.44 % deleted)
d RESTARTS             1141
d FAILURES             544519       
d NODES                2100829      
d BACKTRACKS           2100829      
d PROPAGATIONS         1335363586   
d NOGOODSIZE           198.64 
d MEMORY               638.00 
d TIME                 451.052 

s UNSATISFIABLE
